
Gurobi 9.1.2 (linux64, gurobi_cl) logging started Fri Jul 30 13:51:56 2021

Using license file /opt/gurobi/gurobi.lic
Set parameter TimeLimit to value 600
Set parameter LogFile to value 912-glass4-2.log
Set parameter Seed to value 2

Gurobi Optimizer version 9.1.2 build v9.1.2rc0 (linux64)
Copyright (c) 2021, Gurobi Optimization, LLC

Read MPS format model from file /nfs/models/mip/glass4.mps.bz2
Reading time = 0.12 seconds
glass4: 396 rows, 322 columns, 1815 nonzeros
Thread count: 4 physical cores, 8 logical processors, using up to 8 threads
Optimize a model with 396 rows, 322 columns and 1815 nonzeros
Model fingerprint: 0x0a9d9037
Variable types: 20 continuous, 302 integer (0 binary)
Coefficient statistics:
  Matrix range     [1e+00, 8e+06]
  Objective range  [1e+00, 1e+06]
  Bounds range     [1e+00, 8e+02]
  RHS range        [1e+00, 8e+06]
Presolve removed 6 rows and 6 columns
Presolve time: 0.01s
Presolved: 390 rows, 316 columns, 1803 nonzeros
Variable types: 19 continuous, 297 integer (297 binary)
Found heuristic solution: objective 3.133356e+09

Root relaxation: objective 8.000024e+08, 72 iterations, 0.00 seconds

    Nodes    |    Current Node    |     Objective Bounds      |     Work
 Expl Unexpl |  Obj  Depth IntInf | Incumbent    BestBd   Gap | It/Node Time

     0     0 8.0000e+08    0   72 3.1334e+09 8.0000e+08  74.5%     -    0s
H    0     0                    2.150017e+09 8.0000e+08  62.8%     -    0s
H    0     0                    2.100017e+09 8.0000e+08  61.9%     -    0s
     0     0 8.0000e+08    0   72 2.1000e+09 8.0000e+08  61.9%     -    0s
H    0     0                    2.100016e+09 8.0000e+08  61.9%     -    0s
     0     0 8.0000e+08    0   84 2.1000e+09 8.0000e+08  61.9%     -    0s
     0     0 8.0000e+08    0   82 2.1000e+09 8.0000e+08  61.9%     -    0s
H    0     0                    1.900016e+09 8.0000e+08  57.9%     -    0s
     0     2 8.0000e+08    0   79 1.9000e+09 8.0000e+08  57.9%     -    0s
H  411   522                    1.850016e+09 8.0000e+08  56.8%   6.6    0s
H  889   777                    1.800016e+09 8.0000e+08  55.6%   6.2    0s
H 1152   891                    1.740013e+09 8.0000e+08  54.0%   6.4    0s
H 1154   847                    1.700013e+09 8.0000e+08  52.9%   6.4    0s
H 1223   861                    1.665531e+09 8.0000e+08  52.0%   6.3    0s
H 1277   851                    1.642871e+09 8.0000e+08  51.3%   6.1    0s
H 1419   882                    1.600014e+09 8.0000e+08  50.0%   6.0    0s
H 3986  2187                    1.566681e+09 8.0000e+08  48.9%   4.8    0s
H 4205  2187                    1.566681e+09 8.0000e+08  48.9%   4.7    0s
H 4593  2065                    1.511124e+09 8.0000e+08  47.1%   4.6    0s
H 4594  1790                    1.477791e+09 8.0000e+08  45.9%   4.6    0s
H 4596  1790                    1.475013e+09 8.0000e+08  45.8%   4.6    0s
 33367 13656 infeasible   85      1.4750e+09 9.0001e+08  39.0%   5.2    5s
*39422 13468              56    1.450014e+09 9.1308e+08  37.0%   6.5    6s
*54453 12170              82    1.400013e+09 1.0000e+09  28.6%   7.4    8s
*57567 10452              69    1.400013e+09 1.0392e+09  25.8%   7.5    8s
*62077  9282              64    1.400013e+09 1.1000e+09  21.4%   7.8    8s
 76931 11782 infeasible   55      1.4000e+09 1.2000e+09  14.3%   7.9   10s
*86614  6388              69    1.350013e+09 1.2000e+09  11.1%   7.8   10s
*92492   154              62    1.200013e+09 1.2000e+09  0.00%   7.9   11s

Cutting planes:
  Gomory: 11
  Cover: 2
  Implied bound: 14
  Projected implied bound: 3
  MIR: 15
  Flow cover: 51
  RLT: 8
  Relax-and-lift: 17

Explored 93615 nodes (745850 simplex iterations) in 11.37 seconds
Thread count was 8 (of 8 available processors)

Solution count 10: 1.20001e+09 1.35001e+09 1.40001e+09 ... 1.56668e+09

Optimal solution found (tolerance 1.00e-04)
Best objective 1.200012600000e+09, best bound 1.200010300000e+09, gap 0.0002%
